(set-option :produce-models true)
(set-logic QF_LRA)
(set-info :notes | Strip-packing problem.|)
(declare-fun x0 () Real)
(declare-fun y0 () Real)
(declare-fun x1 () Real)
(declare-fun y1 () Real)
(declare-fun x2 () Real)
(declare-fun y2 () Real)
(declare-fun x3 () Real)
(declare-fun y3 () Real)
(declare-fun x4 () Real)
(declare-fun y4 () Real)
(declare-fun x5 () Real)
(declare-fun y5 () Real)
(declare-fun x6 () Real)
(declare-fun y6 () Real)
(declare-fun x7 () Real)
(declare-fun y7 () Real)
(declare-fun x8 () Real)
(declare-fun y8 () Real)
(declare-fun x9 () Real)
(declare-fun y9 () Real)
(declare-fun x10 () Real)
(declare-fun y10 () Real)
(declare-fun x11 () Real)
(declare-fun y11 () Real)
(declare-fun z () Real)
(declare-fun c () Real)
(assert (and (= c z) (and (>= x0 0) 
(and (>= y0 0) 
(and (>= x1 0) 
(and (>= y1 0) 
(and (>= x2 0) 
(and (>= y2 0) 
(and (>= x3 0) 
(and (>= y3 0) 
(and (>= x4 0) 
(and (>= y4 0) 
(and (>= x5 0) 
(and (>= y5 0) 
(and (>= x6 0) 
(and (>= y6 0) 
(and (>= x7 0) 
(and (>= y7 0) 
(and (>= x8 0) 
(and (>= y8 0) 
(and (>= x9 0) 
(and (>= y9 0) 
(and (>= x10 0) 
(and (>= y10 0) 
(and (>= x11 0) 
(and (>= y11 0) 
(and (>= z 0) 
(and (>= c 0) 
(and (<= (+ x0 0.8332236325) z) 
(and (<= 0.6938580079 y0) 
(and (<= y0 1.0) 
(and (<= x0 (- 4.3511592115 0.8332236325)) 
(and (>= x0 0) 
(and (<= (+ x1 0.532782779) z) 
(and (<= 0.6674801933 y1) 
(and (<= y1 1.0) 
(and (<= x1 (- 4.3511592115 0.532782779)) 
(and (>= x1 0) 
(and (<= (+ x2 0.8145401839) z) 
(and (<= 0.6100714799 y2) 
(and (<= y2 1.0) 
(and (<= x2 (- 4.3511592115 0.8145401839)) 
(and (>= x2 0) 
(and (<= (+ x3 0.4876034811) z) 
(and (<= 0.4437848046 y3) 
(and (<= y3 1.0) 
(and (<= x3 (- 4.3511592115 0.4876034811)) 
(and (>= x3 0) 
(and (<= (+ x4 0.6921932453) z) 
(and (<= 0.4220421228 y4) 
(and (<= y4 1.0) 
(and (<= x4 (- 4.3511592115 0.6921932453)) 
(and (>= x4 0) 
(and (<= (+ x5 0.411113679) z) 
(and (<= 0.3996941927 y5) 
(and (<= y5 1.0) 
(and (<= x5 (- 4.3511592115 0.411113679)) 
(and (>= x5 0) 
(and (<= (+ x6 0.1403863051) z) 
(and (<= 0.3341862644 y6) 
(and (<= y6 1.0) 
(and (<= x6 (- 4.3511592115 0.1403863051)) 
(and (>= x6 0) 
(and (<= (+ x7 0.3713215083) z) 
(and (<= 0.3250854302 y7) 
(and (<= y7 1.0) 
(and (<= x7 (- 4.3511592115 0.3713215083)) 
(and (>= x7 0) 
(and (<= (+ x8 0.9908158897) z) 
(and (<= 0.2094523182 y8) 
(and (<= y8 1.0) 
(and (<= x8 (- 4.3511592115 0.9908158897)) 
(and (>= x8 0) 
(and (<= (+ x9 0.1032474038) z) 
(and (<= 0.2075880101 y9) 
(and (<= y9 1.0) 
(and (<= x9 (- 4.3511592115 0.1032474038)) 
(and (>= x9 0) 
(and (<= (+ x10 0.7605706331) z) 
(and (<= 0.2068712123 y10) 
(and (<= y10 1.0) 
(and (<= x10 (- 4.3511592115 0.7605706331)) 
(and (>= x10 0) 
(and (<= (+ x11 0.7343819646) z) 
(and (<= 0.1921039486 y11) 
(and (<= y11 1.0) 
(and (<= x11 (- 4.3511592115 0.7343819646)) 
(and (>= x11 0) 
(and (<= c 4.3511592115) 
(and (or (<= (+ x0 0.8332236325) x1) (or (<= (+ x1 0.532782779) x0) (or (>= (- y0 0.6938580079) y1) (or (>= (- y1 0.6674801933) y0))))) 
(and (or (<= (+ x0 0.8332236325) x2) (or (<= (+ x2 0.8145401839) x0) (or (>= (- y0 0.6938580079) y2) (or (>= (- y2 0.6100714799) y0))))) 
(and (or (<= (+ x0 0.8332236325) x3) (or (<= (+ x3 0.4876034811) x0) (or (>= (- y0 0.6938580079) y3) (or (>= (- y3 0.4437848046) y0))))) 
(and (or (<= (+ x0 0.8332236325) x4) (or (<= (+ x4 0.6921932453) x0) (or (>= (- y0 0.6938580079) y4) (or (>= (- y4 0.4220421228) y0))))) 
(and (or (<= (+ x0 0.8332236325) x5) (or (<= (+ x5 0.411113679) x0) (or (>= (- y0 0.6938580079) y5) (or (>= (- y5 0.3996941927) y0))))) 
(and (or (<= (+ x0 0.8332236325) x6) (or (<= (+ x6 0.1403863051) x0) (or (>= (- y0 0.6938580079) y6) (or (>= (- y6 0.3341862644) y0))))) 
(and (or (<= (+ x0 0.8332236325) x7) (or (<= (+ x7 0.3713215083) x0) (or (>= (- y0 0.6938580079) y7) (or (>= (- y7 0.3250854302) y0))))) 
(and (or (<= (+ x0 0.8332236325) x8) (or (<= (+ x8 0.9908158897) x0) (or (>= (- y0 0.6938580079) y8) (or (>= (- y8 0.2094523182) y0))))) 
(and (or (<= (+ x0 0.8332236325) x9) (or (<= (+ x9 0.1032474038) x0) (or (>= (- y0 0.6938580079) y9) (or (>= (- y9 0.2075880101) y0))))) 
(and (or (<= (+ x0 0.8332236325) x10) (or (<= (+ x10 0.7605706331) x0) (or (>= (- y0 0.6938580079) y10) (or (>= (- y10 0.2068712123) y0))))) 
(and (or (<= (+ x0 0.8332236325) x11) (or (<= (+ x11 0.7343819646) x0) (or (>= (- y0 0.6938580079) y11) (or (>= (- y11 0.1921039486) y0))))) 
(and (or (<= (+ x1 0.532782779) x2) (or (<= (+ x2 0.8145401839) x1) (or (>= (- y1 0.6674801933) y2) (or (>= (- y2 0.6100714799) y1))))) 
(and (or (<= (+ x1 0.532782779) x3) (or (<= (+ x3 0.4876034811) x1) (or (>= (- y1 0.6674801933) y3) (or (>= (- y3 0.4437848046) y1))))) 
(and (or (<= (+ x1 0.532782779) x4) (or (<= (+ x4 0.6921932453) x1) (or (>= (- y1 0.6674801933) y4) (or (>= (- y4 0.4220421228) y1))))) 
(and (or (<= (+ x1 0.532782779) x5) (or (<= (+ x5 0.411113679) x1) (or (>= (- y1 0.6674801933) y5) (or (>= (- y5 0.3996941927) y1))))) 
(and (or (<= (+ x1 0.532782779) x6) (or (<= (+ x6 0.1403863051) x1) (or (>= (- y1 0.6674801933) y6) (or (>= (- y6 0.3341862644) y1))))) 
(and (or (<= (+ x1 0.532782779) x7) (or (<= (+ x7 0.3713215083) x1) (or (>= (- y1 0.6674801933) y7) (or (>= (- y7 0.3250854302) y1))))) 
(and (or (<= (+ x1 0.532782779) x8) (or (<= (+ x8 0.9908158897) x1) (or (>= (- y1 0.6674801933) y8) (or (>= (- y8 0.2094523182) y1))))) 
(and (or (<= (+ x1 0.532782779) x9) (or (<= (+ x9 0.1032474038) x1) (or (>= (- y1 0.6674801933) y9) (or (>= (- y9 0.2075880101) y1))))) 
(and (or (<= (+ x1 0.532782779) x10) (or (<= (+ x10 0.7605706331) x1) (or (>= (- y1 0.6674801933) y10) (or (>= (- y10 0.2068712123) y1))))) 
(and (or (<= (+ x1 0.532782779) x11) (or (<= (+ x11 0.7343819646) x1) (or (>= (- y1 0.6674801933) y11) (or (>= (- y11 0.1921039486) y1))))) 
(and (or (<= (+ x2 0.8145401839) x3) (or (<= (+ x3 0.4876034811) x2) (or (>= (- y2 0.6100714799) y3) (or (>= (- y3 0.4437848046) y2))))) 
(and (or (<= (+ x2 0.8145401839) x4) (or (<= (+ x4 0.6921932453) x2) (or (>= (- y2 0.6100714799) y4) (or (>= (- y4 0.4220421228) y2))))) 
(and (or (<= (+ x2 0.8145401839) x5) (or (<= (+ x5 0.411113679) x2) (or (>= (- y2 0.6100714799) y5) (or (>= (- y5 0.3996941927) y2))))) 
(and (or (<= (+ x2 0.8145401839) x6) (or (<= (+ x6 0.1403863051) x2) (or (>= (- y2 0.6100714799) y6) (or (>= (- y6 0.3341862644) y2))))) 
(and (or (<= (+ x2 0.8145401839) x7) (or (<= (+ x7 0.3713215083) x2) (or (>= (- y2 0.6100714799) y7) (or (>= (- y7 0.3250854302) y2))))) 
(and (or (<= (+ x2 0.8145401839) x8) (or (<= (+ x8 0.9908158897) x2) (or (>= (- y2 0.6100714799) y8) (or (>= (- y8 0.2094523182) y2))))) 
(and (or (<= (+ x2 0.8145401839) x9) (or (<= (+ x9 0.1032474038) x2) (or (>= (- y2 0.6100714799) y9) (or (>= (- y9 0.2075880101) y2))))) 
(and (or (<= (+ x2 0.8145401839) x10) (or (<= (+ x10 0.7605706331) x2) (or (>= (- y2 0.6100714799) y10) (or (>= (- y10 0.2068712123) y2))))) 
(and (or (<= (+ x2 0.8145401839) x11) (or (<= (+ x11 0.7343819646) x2) (or (>= (- y2 0.6100714799) y11) (or (>= (- y11 0.1921039486) y2))))) 
(and (or (<= (+ x3 0.4876034811) x4) (or (<= (+ x4 0.6921932453) x3) (or (>= (- y3 0.4437848046) y4) (or (>= (- y4 0.4220421228) y3))))) 
(and (or (<= (+ x3 0.4876034811) x5) (or (<= (+ x5 0.411113679) x3) (or (>= (- y3 0.4437848046) y5) (or (>= (- y5 0.3996941927) y3))))) 
(and (or (<= (+ x3 0.4876034811) x6) (or (<= (+ x6 0.1403863051) x3) (or (>= (- y3 0.4437848046) y6) (or (>= (- y6 0.3341862644) y3))))) 
(and (or (<= (+ x3 0.4876034811) x7) (or (<= (+ x7 0.3713215083) x3) (or (>= (- y3 0.4437848046) y7) (or (>= (- y7 0.3250854302) y3))))) 
(and (or (<= (+ x3 0.4876034811) x8) (or (<= (+ x8 0.9908158897) x3) (or (>= (- y3 0.4437848046) y8) (or (>= (- y8 0.2094523182) y3))))) 
(and (or (<= (+ x3 0.4876034811) x9) (or (<= (+ x9 0.1032474038) x3) (or (>= (- y3 0.4437848046) y9) (or (>= (- y9 0.2075880101) y3))))) 
(and (or (<= (+ x3 0.4876034811) x10) (or (<= (+ x10 0.7605706331) x3) (or (>= (- y3 0.4437848046) y10) (or (>= (- y10 0.2068712123) y3))))) 
(and (or (<= (+ x3 0.4876034811) x11) (or (<= (+ x11 0.7343819646) x3) (or (>= (- y3 0.4437848046) y11) (or (>= (- y11 0.1921039486) y3))))) 
(and (or (<= (+ x4 0.6921932453) x5) (or (<= (+ x5 0.411113679) x4) (or (>= (- y4 0.4220421228) y5) (or (>= (- y5 0.3996941927) y4))))) 
(and (or (<= (+ x4 0.6921932453) x6) (or (<= (+ x6 0.1403863051) x4) (or (>= (- y4 0.4220421228) y6) (or (>= (- y6 0.3341862644) y4))))) 
(and (or (<= (+ x4 0.6921932453) x7) (or (<= (+ x7 0.3713215083) x4) (or (>= (- y4 0.4220421228) y7) (or (>= (- y7 0.3250854302) y4))))) 
(and (or (<= (+ x4 0.6921932453) x8) (or (<= (+ x8 0.9908158897) x4) (or (>= (- y4 0.4220421228) y8) (or (>= (- y8 0.2094523182) y4))))) 
(and (or (<= (+ x4 0.6921932453) x9) (or (<= (+ x9 0.1032474038) x4) (or (>= (- y4 0.4220421228) y9) (or (>= (- y9 0.2075880101) y4))))) 
(and (or (<= (+ x4 0.6921932453) x10) (or (<= (+ x10 0.7605706331) x4) (or (>= (- y4 0.4220421228) y10) (or (>= (- y10 0.2068712123) y4))))) 
(and (or (<= (+ x4 0.6921932453) x11) (or (<= (+ x11 0.7343819646) x4) (or (>= (- y4 0.4220421228) y11) (or (>= (- y11 0.1921039486) y4))))) 
(and (or (<= (+ x5 0.411113679) x6) (or (<= (+ x6 0.1403863051) x5) (or (>= (- y5 0.3996941927) y6) (or (>= (- y6 0.3341862644) y5))))) 
(and (or (<= (+ x5 0.411113679) x7) (or (<= (+ x7 0.3713215083) x5) (or (>= (- y5 0.3996941927) y7) (or (>= (- y7 0.3250854302) y5))))) 
(and (or (<= (+ x5 0.411113679) x8) (or (<= (+ x8 0.9908158897) x5) (or (>= (- y5 0.3996941927) y8) (or (>= (- y8 0.2094523182) y5))))) 
(and (or (<= (+ x5 0.411113679) x9) (or (<= (+ x9 0.1032474038) x5) (or (>= (- y5 0.3996941927) y9) (or (>= (- y9 0.2075880101) y5))))) 
(and (or (<= (+ x5 0.411113679) x10) (or (<= (+ x10 0.7605706331) x5) (or (>= (- y5 0.3996941927) y10) (or (>= (- y10 0.2068712123) y5))))) 
(and (or (<= (+ x5 0.411113679) x11) (or (<= (+ x11 0.7343819646) x5) (or (>= (- y5 0.3996941927) y11) (or (>= (- y11 0.1921039486) y5))))) 
(and (or (<= (+ x6 0.1403863051) x7) (or (<= (+ x7 0.3713215083) x6) (or (>= (- y6 0.3341862644) y7) (or (>= (- y7 0.3250854302) y6))))) 
(and (or (<= (+ x6 0.1403863051) x8) (or (<= (+ x8 0.9908158897) x6) (or (>= (- y6 0.3341862644) y8) (or (>= (- y8 0.2094523182) y6))))) 
(and (or (<= (+ x6 0.1403863051) x9) (or (<= (+ x9 0.1032474038) x6) (or (>= (- y6 0.3341862644) y9) (or (>= (- y9 0.2075880101) y6))))) 
(and (or (<= (+ x6 0.1403863051) x10) (or (<= (+ x10 0.7605706331) x6) (or (>= (- y6 0.3341862644) y10) (or (>= (- y10 0.2068712123) y6))))) 
(and (or (<= (+ x6 0.1403863051) x11) (or (<= (+ x11 0.7343819646) x6) (or (>= (- y6 0.3341862644) y11) (or (>= (- y11 0.1921039486) y6))))) 
(and (or (<= (+ x7 0.3713215083) x8) (or (<= (+ x8 0.9908158897) x7) (or (>= (- y7 0.3250854302) y8) (or (>= (- y8 0.2094523182) y7))))) 
(and (or (<= (+ x7 0.3713215083) x9) (or (<= (+ x9 0.1032474038) x7) (or (>= (- y7 0.3250854302) y9) (or (>= (- y9 0.2075880101) y7))))) 
(and (or (<= (+ x7 0.3713215083) x10) (or (<= (+ x10 0.7605706331) x7) (or (>= (- y7 0.3250854302) y10) (or (>= (- y10 0.2068712123) y7))))) 
(and (or (<= (+ x7 0.3713215083) x11) (or (<= (+ x11 0.7343819646) x7) (or (>= (- y7 0.3250854302) y11) (or (>= (- y11 0.1921039486) y7))))) 
(and (or (<= (+ x8 0.9908158897) x9) (or (<= (+ x9 0.1032474038) x8) (or (>= (- y8 0.2094523182) y9) (or (>= (- y9 0.2075880101) y8))))) 
(and (or (<= (+ x8 0.9908158897) x10) (or (<= (+ x10 0.7605706331) x8) (or (>= (- y8 0.2094523182) y10) (or (>= (- y10 0.2068712123) y8))))) 
(and (or (<= (+ x8 0.9908158897) x11) (or (<= (+ x11 0.7343819646) x8) (or (>= (- y8 0.2094523182) y11) (or (>= (- y11 0.1921039486) y8))))) 
(and (or (<= (+ x9 0.1032474038) x10) (or (<= (+ x10 0.7605706331) x9) (or (>= (- y9 0.2075880101) y10) (or (>= (- y10 0.2068712123) y9))))) 
(and (or (<= (+ x9 0.1032474038) x11) (or (<= (+ x11 0.7343819646) x9) (or (>= (- y9 0.2075880101) y11) (or (>= (- y11 0.1921039486) y9))))) 
(and (or (<= (+ x10 0.7605706331) x11) (or (<= (+ x11 0.7343819646) x10) (or (>= (- y10 0.2068712123) y11) (or (>= (- y11 0.1921039486) y10))))) )))))))))))))))))))))))))))))))))))))))))))))))))))))))))))))))))))))))))))))))))))))))))))))))))))))))))))))))))))))))))))))))))))))))))))))))))))))))))))
(minimize c)
(check-sat)
(get-objectives)
(exit)
